words_hard_train/5494.qaiger
aag 92 17 0 1 75
2
4
12
14
18
22
26
30
34
44
46
50
54
58
62
66
70
184
6 2 5
8 3 4
10 7 9
16 12 14
20 16 18
24 20 22
28 24 26
32 28 30
36 32 34
38 11 36
40 10 37
42 39 41
48 44 46
52 48 50
56 52 54
60 56 58
64 60 62
68 64 66
72 68 70
74 43 72
76 65 67
78 77 69
80 29 31
82 81 33
84 79 82
86 75 85
88 69 71
90 89 73
92 33 35
94 93 37
96 91 94
98 86 97
100 61 63
102 101 65
104 25 27
106 105 29
108 102 107
110 103 106
112 109 111
114 78 83
116 112 115
118 53 55
120 119 57
122 17 19
124 123 21
126 121 125
128 120 124
130 127 129
132 45 47
134 133 49
136 135 12
138 49 51
140 139 53
142 141 15
144 140 14
146 143 145
148 136 146
150 134 13
152 150 147
154 149 153
156 57 59
158 157 61
160 21 23
162 161 25
164 158 162
166 159 163
168 165 167
170 155 169
172 131 170
174 116 172
176 90 95
178 42 73
180 177 179
182 174 180
184 98 182
i0 2 y1[7]
i1 2 y2[7]
i2 2 y2[0]
i3 2 y2[1]
i4 2 y2[2]
i5 2 y2[3]
i6 2 y2[4]
i7 2 y2[5]
i8 2 y2[6]
i9 2 y1[0]
i10 1 x1[7]
i11 2 y1[1]
i12 2 y1[2]
i13 2 y1[3]
i14 2 y1[4]
i15 2 y1[5]
i16 2 y1[6]
o0 bool[0]
c
simplified
  ==
    add
      2 y2
      1
    subtract
      2 y1
      >> 7
        1 x1
