words_hard_train/5494.qaiger.qdimacs
p cnf 92 226
a 23 0
e 1 2 3 4 5 6 7 8 9 10 11 12 13 14 15 16 17 18 19 20 21 22 24 25 26 27 28 29 30 31 32 33 34 35 36 37 38 39 40 41 42 43 44 45 46 47 48 49 50 51 52 53 54 55 56 57 58 59 60 61 62 63 64 65 66 67 68 69 70 71 72 73 74 75 76 77 78 79 80 81 82 83 84 85 86 87 88 89 90 91 92 0
-1 2 3 0
1 -3 0
-2 -3 0
1 -2 4 0
-1 -4 0
2 -4 0
3 4 5 0
-3 -5 0
-4 -5 0
-6 -7 8 0
6 -8 0
7 -8 0
-8 -9 10 0
8 -10 0
9 -10 0
-10 -11 12 0
10 -12 0
11 -12 0
-12 -13 14 0
12 -14 0
13 -14 0
-14 -15 16 0
14 -16 0
15 -16 0
-16 -17 18 0
16 -18 0
17 -18 0
5 -18 19 0
-5 -19 0
18 -19 0
-5 18 20 0
5 -20 0
-18 -20 0
19 20 21 0
-19 -21 0
-20 -21 0
-22 -23 24 0
22 -24 0
23 -24 0
-24 -25 26 0
24 -26 0
25 -26 0
-26 -27 28 0
26 -28 0
27 -28 0
-28 -29 30 0
28 -30 0
29 -30 0
-30 -31 32 0
30 -32 0
31 -32 0
-32 -33 34 0
32 -34 0
33 -34 0
-34 -35 36 0
34 -36 0
35 -36 0
21 -36 37 0
-21 -37 0
36 -37 0
32 33 38 0
-32 -38 0
-33 -38 0
38 34 39 0
-38 -39 0
-34 -39 0
14 15 40 0
-14 -40 0
-15 -40 0
40 16 41 0
-40 -41 0
-16 -41 0
39 -41 42 0
-39 -42 0
41 -42 0
37 42 43 0
-37 -43 0
-42 -43 0
34 35 44 0
-34 -44 0
-35 -44 0
44 36 45 0
-44 -45 0
-36 -45 0
16 17 46 0
-16 -46 0
-17 -46 0
46 18 47 0
-46 -47 0
-18 -47 0
45 -47 48 0
-45 -48 0
47 -48 0
-43 48 49 0
43 -49 0
-48 -49 0
30 31 50 0
-30 -50 0
-31 -50 0
50 32 51 0
-50 -51 0
-32 -51 0
12 13 52 0
-12 -52 0
-13 -52 0
52 14 53 0
-52 -53 0
-14 -53 0
-51 53 54 0
51 -54 0
-53 -54 0
51 -53 55 0
-51 -55 0
53 -55 0
54 55 56 0
-54 -56 0
-55 -56 0
-39 41 57 0
39 -57 0
-41 -57 0
-56 57 58 0
56 -58 0
-57 -58 0
26 27 59 0
-26 -59 0
-27 -59 0
59 28 60 0
-59 -60 0
-28 -60 0
8 9 61 0
-8 -61 0
-9 -61 0
61 10 62 0
-61 -62 0
-10 -62 0
60 62 63 0
-60 -63 0
-62 -63 0
-60 -62 64 0
60 -64 0
62 -64 0
63 64 65 0
-63 -65 0
-64 -65 0
22 23 66 0
-22 -66 0
-23 -66 0
66 24 67 0
-66 -67 0
-24 -67 0
67 -6 68 0
-67 -68 0
6 -68 0
24 25 69 0
-24 -69 0
-25 -69 0
69 26 70 0
-69 -70 0
-26 -70 0
70 7 71 0
-70 -71 0
-7 -71 0
-70 -7 72 0
70 -72 0
7 -72 0
71 72 73 0
-71 -73 0
-72 -73 0
-68 -73 74 0
68 -74 0
73 -74 0
-67 6 75 0
67 -75 0
-6 -75 0
-75 73 76 0
75 -76 0
-73 -76 0
74 76 77 0
-74 -77 0
-76 -77 0
28 29 78 0
-28 -78 0
-29 -78 0
78 30 79 0
-78 -79 0
-30 -79 0
10 11 80 0
-10 -80 0
-11 -80 0
80 12 81 0
-80 -81 0
-12 -81 0
-79 -81 82 0
79 -82 0
81 -82 0
79 81 83 0
-79 -83 0
-81 -83 0
82 83 84 0
-82 -84 0
-83 -84 0
77 84 85 0
-77 -85 0
-84 -85 0
65 -85 86 0
-65 -86 0
85 -86 0
-58 -86 87 0
58 -87 0
86 -87 0
-45 47 88 0
45 -88 0
-47 -88 0
-21 36 89 0
21 -89 0
-36 -89 0
88 89 90 0
-88 -90 0
-89 -90 0
-87 -90 91 0
87 -91 0
90 -91 0
-49 -91 92 0
49 -92 0
91 -92 0
92 0
